# =========================================================
# Problema: Projeto de rede de especialistas 3 niveis
# Joao Flavio F. Almeida, 	<joao.flavio@dep.ufmg.br>
# Horacio Faria <horaciofaria@gmail.com>
# Leonardo <leomarie@gmail.com>
# Hugo Rodrigues <hugonr@gmail.com>
# Virginia 			<vmmagalhaes@nescon.medicina.ufmg.br>
# Data   : 01/02/2021
# Versao: 12.0: Estado (28 - Sergipe)
# ===========================================================

data;

param Distmax:=
1 50  # 80
2 80 # + 120
3 100; # + 200

# Minimal population on destination municipality (j) 
param POPmin:=
1	0
2	10000
3	30000
;

# param DurUpper:=
# 1 0.51 
# 2 1.3 
# 3 1.3; 

param DurUpper:=
1 0.51 
2 1.0 
3 1.5;


# Municipios selecionados que já possuem infraestrutura de nível 3
set S3:=
#	co_municipio	#	no_municipio	qtd_realizado
	280030	#	ARACAJU	1369
;


# CODIGO	REGIAO	ESTADO	LAT	LONG	POPULACAO 2030	CAP	MUNICIPIO
param: I :	RE	ES	lat	lng	POP	INFR	Mun :=
280010	2	28	-10.134800	-36.935000	2554	1	'Amparo_De_Sao_Francisco'
280020	2	28	-10.278000	-37.014800	23127	0	'Aquidaba'
280030	2	28	-10.909100	-37.067700	699912	0	'Aracaju'
280040	2	28	-11.261400	-37.620100	10967	1	'Araua'
280050	2	28	-10.758000	-37.325100	19841	1	'Areia_Branca'
280060	2	28	-10.899600	-37.032300	32219	1	'Barra_Dos_Coqueiros'
280067	2	28	-11.139700	-37.619500	28831	1	'Boquim'
280070	2	28	-10.429700	-36.461100	8913	1	'Brejo_Grande'
280100	2	28	-10.739200	-37.495400	19411	1	'Campo_Do_Brito'
280110	2	28	-10.136500	-36.980600	4326	1	'Canhoba'
280120	2	28	-9.648820	-37.792300	31742	0	'Caninde_De_Sao_Francisco'
280130	2	28	-10.506900	-37.062800	36567	0	'Capela'
280140	2	28	-10.352400	-37.700200	23430	1	'Carira'
280150	2	28	-10.644900	-36.988700	17606	1	'Carmopolis'
280160	2	28	-10.253400	-36.885600	6342	1	'Cedro_De_Sao_Joao'
280170	2	28	-11.466800	-37.758500	19619	1	'Cristinapolis'
280190	2	28	-10.352000	-37.184600	4289	1	'Cumbe'
280200	2	28	-10.678200	-37.150600	5456	1	'Divina_Pastora'
280210	2	28	-11.265900	-37.448400	74208	0	'Estancia'
280220	2	28	-10.261600	-37.314700	6004	1	'Feira_Nova'
280230	2	28	-10.551300	-37.527900	16483	1	'Frei_Paulo'
280240	2	28	-9.972200	-37.086900	12518	1	'Gararu'
280250	2	28	-10.683500	-36.983800	3567	1	'General_Maynard'
280260	2	28	-10.225200	-37.200600	6267	1	'Gracho_Cardoso'
280270	2	28	-10.442500	-36.547900	9188	1	'Ilha_Das_Flores'
280280	2	28	-11.515700	-37.515000	19156	1	'Indiaroba'
280290	2	28	-10.682600	-37.427300	102134	0	'Itabaiana'
280300	2	28	-11.269300	-37.787500	44958	0	'Itabaianinha'
280310	2	28	-10.124800	-37.105600	5308	1	'Itabi'
280320	2	28	-10.990000	-37.307800	36664	1	'Itaporanga_Dajuda'
280330	2	28	-10.584900	-36.941800	20035	1	'Japaratuba'
280340	2	28	-10.347700	-36.804500	14113	1	'Japoata'
280350	2	28	-10.913600	-37.668900	111712	0	'Lagarto'
280360	2	28	-10.798100	-37.173100	31889	1	'Laranjeiras'
280370	2	28	-10.661900	-37.541300	7417	1	'Macambira'
280380	2	28	-10.341800	-36.925200	3953	1	'Malhada_Dos_Bois'
280390	2	28	-10.664900	-37.300400	13569	1	'Malhador'
280400	2	28	-10.730800	-37.085600	18500	1	'Maruim'
280410	2	28	-10.576900	-37.351200	12211	1	'Moita_Bonita'
280420	2	28	-10.025600	-37.561600	16308	1	'Monte_Alegre_De_Sergipe'
280430	2	28	-10.427100	-36.958800	8208	1	'Muribeca'
280440	2	28	-10.321500	-36.585000	20207	1	'Neopolis'
280445	2	28	-10.394400	-37.451700	9473	1	'Nossa_Senhora_Aparecida'
280450	2	28	-10.215800	-37.421100	39382	0	'Nossa_Senhora_Da_Gloria'
280460	2	28	-10.485400	-37.196300	28538	1	'Nossa_Senhora_Das_Dores'
280470	2	28	-10.077200	-37.061500	6978	1	'Nossa_Senhora_De_Lourdes'
280480	2	28	-10.846800	-37.123100	195760	0	'Nossa_Senhora_Do_Socorro'
280490	2	28	-10.453800	-36.653100	15474	1	'Pacatuba'
280500	2	28	-10.613400	-37.692200	3490	1	'Pedra_Mole'
280510	2	28	-11.190200	-37.677500	10287	1	'Pedrinhas'
280520	2	28	-10.567700	-37.724200	7035	1	'Pinhao'
280530	2	28	-10.721500	-36.854400	9922	1	'Pirambu'
280540	2	28	-9.806160	-37.683300	37115	0	'Poco_Redondo'
280550	2	28	-10.715100	-38.181300	25439	1	'Poco_Verde'
280560	2	28	-9.916260	-37.284200	30735	1	'Porto_Da_Folha'
280570	2	28	-10.213800	-36.844200	31881	0	'Propria'
280580	2	28	-11.072900	-37.731000	21355	1	'Riachao_Do_Dantas'
280590	2	28	-10.735000	-37.196600	10936	0	'Riachuelo'
280600	2	28	-10.535700	-37.438000	19983	1	'Ribeiropolis'
280610	2	28	-10.690400	-37.035700	11537	1	'Rosario_Do_Catete'
280620	2	28	-11.028800	-37.480400	21539	1	'Salgado'
280630	2	28	-11.353600	-37.458600	15043	1	'Santa_Luzia_Do_Itanhy'
280640	2	28	-10.292200	-36.610500	8320	1	'Santana_Do_Sao_Francisco'
280650	2	28	-10.643400	-37.193100	4211	1	'Santa_Rosa_De_Lima'
280660	2	28	-10.789200	-37.056400	12998	1	'Santo_Amaro_Das_Brotas'
280670	2	28	-11.008400	-37.204400	96020	0	'Sao_Cristovao'
280680	2	28	-10.791600	-37.568500	11934	1	'Sao_Domingos'
280690	2	28	-10.344200	-36.886900	4300	1	'Sao_Francisco'
280700	2	28	-10.384700	-37.383600	4220	1	'Sao_Miguel_Do_Aleixo'
280710	2	28	-10.738700	-37.809700	43666	0	'Simao_Dias'
280720	2	28	-10.596500	-37.113100	9505	1	'Siriri'
280730	2	28	-10.206400	-36.881800	3456	1	'Telha'
280740	2	28	-11.179800	-37.999500	55915	1	'Tobias_Barreto'
280750	2	28	-11.369400	-37.843300	14087	1	'Tomar_Do_Geru'
280760	2	28	-11.380900	-37.662300	26999	1	'Umbauba'




# CODIGO	REGIAO	ESTADO	LAT	LONG	POPULACAO 2018	CAP	MUNICIPIO
# 280010	2	28	-10.13	-36.93	2368	0	'Amparo_De_Sao_Francisco'
# 280020	2	28	-10.29	-37.02	21443	0	'Aquidaba'
# 280030	2	28	-10.91	-37.05	648939	1	'Aracaju'
# 280040	2	28	-11.26	-37.61	10168	0	'Araua'
# 280050	2	28	-10.76	-37.31	18396	0	'Areia_Branca'
# 280060	2	28	-10.91	-37.04	29873	0	'Barra_Dos_Coqueiros'
# 280067	2	28	-11.15	-37.62	26731	0	'Boquim'
# 280070	2	28	-10.42	-36.47	8264	0	'Brejo_Grande'
# 280100	2	28	-10.74	-37.50	17997	0	'Campo_Do_Brito'
# 280110	2	28	-10.14	-36.97	4011	0	'Canhoba'
# 280120	2	28	-9.65	-37.79	29430	0	'Caninde_De_Sao_Francisco'
# 280130	2	28	-10.51	-37.05	33904	0	'Capela'
# 280140	2	28	-10.36	-37.70	21724	0	'Carira'
# 280150	2	28	-10.65	-36.99	16324	0	'Carmopolis'
# 280160	2	28	-10.25	-36.88	5880	0	'Cedro_De_Sao_Joao'
# 280170	2	28	-11.47	-37.75	18190	0	'Cristinapolis'
# 280190	2	28	-10.36	-37.19	3977	0	'Cumbe'
# 280200	2	28	-10.68	-37.15	5059	0	'Divina_Pastora'
# 280210	2	28	-11.27	-37.44	68804	0	'Estancia'
# 280220	2	28	-10.27	-37.32	5567	0	'Feira_Nova'
# 280230	2	28	-10.54	-37.54	15283	0	'Frei_Paulo'
# 280240	2	28	-9.97	-37.08	11606	0	'Gararu'
# 280250	2	28	-10.69	-36.99	3307	0	'General_Maynard'
# 280260	2	28	-10.23	-37.20	5811	0	'Gracho_Cardoso'
# 280270	2	28	-10.43	-36.54	8519	0	'Ilha_Das_Flores'
# 280280	2	28	-11.52	-37.52	17761	0	'Indiaroba'
# 280290	2	28	-10.69	-37.43	94696	0	'Itabaiana'
# 280300	2	28	-11.28	-37.79	41684	0	'Itabaianinha'
# 280310	2	28	-10.12	-37.10	4921	0	'Itabi'
# 280320	2	28	-11.00	-37.31	33994	0	'Itaporanga_Dajuda'
# 280330	2	28	-10.59	-36.94	18576	0	'Japaratuba'
# 280340	2	28	-10.35	-36.80	13085	0	'Japoata'
# 280350	2	28	-10.92	-37.67	103576	0	'Lagarto'
# 280360	2	28	-10.80	-37.16	29567	0	'Laranjeiras'
# 280370	2	28	-10.66	-37.54	6877	0	'Macambira'
# 280380	2	28	-10.35	-36.92	3665	0	'Malhada_Dos_Bois'
# 280390	2	28	-10.66	-37.31	12581	0	'Malhador'
# 280400	2	28	-10.74	-37.08	17153	0	'Maruim'
# 280410	2	28	-10.58	-37.35	11322	0	'Moita_Bonita'
# 280420	2	28	-10.03	-37.56	15120	0	'Monte_Alegre_De_Sergipe'
# 280430	2	28	-10.43	-36.96	7610	0	'Muribeca'
# 280440	2	28	-10.32	-36.58	18735	0	'Neopolis'
# 280445	2	28	-10.39	-37.45	8783	0	'Nossa_Senhora_Aparecida'
# 280450	2	28	-10.22	-37.42	36514	0	'Nossa_Senhora_Da_Gloria'
# 280460	2	28	-10.49	-37.19	26460	0	'Nossa_Senhora_Das_Dores'
# 280470	2	28	-10.08	-37.05	6470	0	'Nossa_Senhora_De_Lourdes'
# 280480	2	28	-10.85	-37.13	181503	0	'Nossa_Senhora_Do_Socorro'
# 280490	2	28	-10.45	-36.65	14347	0	'Pacatuba'
# 280500	2	28	-10.62	-37.69	3236	0	'Pedra_Mole'
# 280510	2	28	-11.19	-37.68	9538	0	'Pedrinhas'
# 280520	2	28	-10.57	-37.72	6523	0	'Pinhao'
# 280530	2	28	-10.74	-36.86	9199	0	'Pirambu'
# 280540	2	28	-9.81	-37.68	34412	0	'Poco_Redondo'
# 280550	2	28	-10.71	-38.18	23586	0	'Poco_Verde'
# 280560	2	28	-9.92	-37.28	28497	0	'Porto_Da_Folha'
# 280570	2	28	-10.21	-36.84	29559	0	'Propria'
# 280580	2	28	-11.07	-37.73	19800	0	'Riachao_Do_Dantas'
# 280590	2	28	-10.73	-37.19	10140	0	'Riachuelo'
# 280600	2	28	-10.55	-37.43	18528	0	'Ribeiropolis'
# 280610	2	28	-10.69	-37.03	10697	0	'Rosario_Do_Catete'
# 280620	2	28	-11.02	-37.48	19970	0	'Salgado'
# 280630	2	28	-11.35	-37.45	13947	0	'Santa_Luzia_Do_Itanhy'
# 280640	2	28	-10.29	-36.60	7714	0	'Santana_Do_Sao_Francisco'
# 280650	2	28	-10.65	-37.20	3904	0	'Santa_Rosa_De_Lima'
# 280660	2	28	-10.78	-37.06	12051	0	'Santo_Amaro_Das_Brotas'
# 280670	2	28	-11.01	-37.21	89027	0	'Sao_Cristovao'
# 280680	2	28	-10.79	-37.57	11065	0	'Sao_Domingos'
# 280690	2	28	-10.35	-36.89	3987	0	'Sao_Francisco'
# 280700	2	28	-10.39	-37.38	3913	0	'Sao_Miguel_Do_Aleixo'
# 280710	2	28	-10.74	-37.81	40486	0	'Simao_Dias'
# 280720	2	28	-10.61	-37.11	8813	0	'Siriri'
# 280730	2	28	-10.21	-36.88	3204	0	'Telha'
# 280740	2	28	-11.18	-38.00	51843	0	'Tobias_Barreto'
# 280750	2	28	-11.37	-37.85	13061	0	'Tomar_Do_Geru'
# 280760	2	28	-11.38	-37.66	25033	0	'Umbauba'
;

end;
